c Sudoku solution
p cnf 729 0
225 0
258 0
263 0
299 0
347 0
352 0
371 0
386 0
432 0
469 0
487 0
534 0
543 0
567 0
591 0
631 0
656 0
555 0
664 0
642 0
451 0
448 0
365 0
698 0
814 0
838 0
853 0
861 0
166 0
921 0
781 0
935 0
997 0
827 0
757 0
617 0
415 0
779 0
768 0
962 0
919 0
849 0
745 0
946 0
954 0
794 0
159 0
339 0
393 0
318 0
324 0
122 0
195 0
712 0
113 0
211 0
137 0
236 0
141 0
244 0
184 0
282 0
277 0
178 0
516 0
423 0
629 0
528 0
572 0
589 0
726 0
733 0
474 0
496 0
876 0
675 0
683 0
973 0
988 0
885 0
892 0
